npieces = 10;	
nplayers = 5;	
duration = [7, 6, 10, 2, 1, 2, 1, 3, 9, 9];
rehearsal = [[1, 1, 0, 0, 0, 0, 0, 1, 1, 0], [1, 0, 0, 0, 1, 1, 0, 1, 1, 1], [0, 1, 1, 0, 1, 1, 0, 0, 1, 1], [1, 1, 1, 1, 1, 0, 0, 0, 1, 0], [0, 1, 1, 1, 0, 1, 0, 1, 1, 1]];